row=8;
column=8;
Board=[|0,0,8,0,1,0,0,0|0,0,0,1,6,0,0,3|0,0,3,0,0,1,0,0|0,4,2,0,5,7,0,0|0,0,0,0,4,5,0,6|1,2,5,0,0,0,0,0|5,0,0,0,0,0,1,0|0,1,7,2,0,8,0,0|];
OE=[|1,0,0,1,1,0,0,1|0,1,0,1,0,0,1,1|1,0,1,0,0,1,1,0|0,0,0,0,1,1,1,1|0,1,1,1,0,1,0,0|1,0,1,1,1,0,0,0|1,1,0,0,0,1,1,0|0,1,1,0,1,0,0,1|];
